NAME: tsp10_14
COMMENT: 10-tsp problem (Padberg/Rinaldi)
TYPE: TSP
DIMENSION: 10
EDGE_WEIGHT_TYPE : EUC_2D
NODE_COORD_SECTION
1 27 18
2 35 6
3 16 6
4 28 16
5 6 7
6 20 33
7 35 2
8 26 7
9 3 19
10 39 26
